solution status: optimal solution found
objective value:                      152709.69473468
d11(0,0)                                            1 	(obj:0)
d11(1,1)                                            1 	(obj:0)
d11(1,2)                                            1 	(obj:0)
d11(2,3)                                            1 	(obj:0)
d11(2,5)                                            1 	(obj:0)
d11(2,6)                                            1 	(obj:0)
d11(3,7)                                            1 	(obj:0)
d11(3,8)                                            1 	(obj:0)
d11(3,9)                                            1 	(obj:0)
d11(3,10)                                           1 	(obj:0)
d11(3,11)                                           1 	(obj:0)
d11(3,12)                                           1 	(obj:0)
d11(3,13)                                           1 	(obj:0)
d11(3,14)                                           1 	(obj:0)
d21(3,7)                                            1 	(obj:0)
WB(2)                                3315.65537776224 	(obj:0)
STE(1,1)                             4115.24994888882 	(obj:0)
STE(0,0)                                         9450 	(obj:0)
STE(1,2)                             5773.49984777764 	(obj:0)
STE(2,3)                             1701.00005000004 	(obj:0)
STE(2,4)                             3359.24994888882 	(obj:0)
STE(2,5)                             3359.24994888882 	(obj:0)
STE(2,6)                             5017.49984777764 	(obj:0)
STE(3,7)                            -713.249848888778 	(obj:0)
STE(3,8)                             945.000050000039 	(obj:0)
STE(3,9)                                    945.00005 	(obj:0)
STE(3,10)                            2603.24994888882 	(obj:0)
STE(3,11)                                   945.00005 	(obj:0)
STE(3,12)                            2603.24994888882 	(obj:0)
STE(3,13)                            2603.24994888882 	(obj:0)
STE(3,14)                            4261.49984777764 	(obj:0)
AVE(2)                               3315.65537776224 	(obj:0)
y1(1,1)                              4120.87504600006 	(obj:0)
y1(1,2)                              2628.45013700013 	(obj:0)
y1(2,3)                               1492.4249089999 	(obj:0)
y1(2,5)                              1492.42490899994 	(obj:0)
y1(3,7)                              1492.42490899994 	(obj:0)
y1(3,9)                              1492.42490899994 	(obj:0)
y1(3,11)                             1492.42490899994 	(obj:0)
y1(3,13)                             1492.42490899994 	(obj:0)
AVE(3)                               3315.65799770399 	(obj:0)
WB(1)                                3248.33172520918 	(obj:0)
WG(3)                                3315.65799770392 	(obj:10)
BG(1)                                6878.38447551031 	(obj:10)
BG(2)                                4196.29249897959 	(obj:10)
BG(3)                                880.634501275645 	(obj:10)
AVE(1)                               3248.33172520918 	(obj:0)
